20605.0
1 0 0 1 1 1 0 1 1 0 1 0 1 0 0 0 1 0 0 1 0 1 1 0 1 1 0 1 1 0 
19 61 81 94 98 105 118 129 151 153 176 188 


13 16 46 64 95 109 136 137 158 159 160 168 
10 28 32 43 60 84 104 106 111 124 167 174 178 193 
22 66 74 77 87 134 145 156 164 166 170 180 

0 15 40 59 62 70 89 103 117 194 196 
36 37 41 44 54 57 63 73 78 82 115 119 120 135 154 171 185 

12 17 24 49 75 76 80 85 133 139 152 162 173 177 179 187 198 

5 35 42 55 71 97 113 114 127 140 142 184 195 



21 33 39 51 53 79 125 157 


1 27 30 31 45 48 67 72 86 91 110 123 128 172 183 192 199 

2 4 6 29 47 101 126 147 169 175 181 182 189 190 191 197 
8 18 58 108 141 

23 38 50 52 107 131 146 150 163 
56 65 69 83 92 93 102 121 132 143 144 149 

3 7 20 25 26 34 88 112 148 161 165 
9 11 14 68 90 96 99 100 116 122 130 138 155 186 

